(set-info :source |printed by MathSAT|)
(declare-fun a_3 () (Array Int Int))
(declare-fun .x.9 () (Array Int Int))
(declare-fun i_2 () Int)
(declare-fun .y.12 () Int)
(declare-fun N_3 () Int)
(declare-fun .y.13 () Int)
(declare-fun .y.6 () Int)
(declare-fun .y.14 () Int)
(declare-fun .y.7 () (Array Int Int))
(declare-fun b () (Array Int Int))
(declare-fun .y.8 () Int)
(declare-fun .x.10 () Int)
(declare-fun .y.9 () Int)
(declare-fun .x.11 () Int)
(declare-fun .loc.10 () Bool)
(declare-fun .loc.15 () Bool)
(declare-fun .loc.11 () Bool)
(declare-fun .loc.16 () Bool)
(declare-fun i1_2 () Int)
(declare-fun j1_0 () Int)
(define-fun .def_8 () (Array Int Int) (! a_3 :next |.x.9|))
(define-fun .def_10 () Int (! i_2 :next |.y.12|))
(define-fun .def_12 () Int (! N_3 :next |.y.13|))
(define-fun .def_14 () Int (! .y.6 :next |.y.14|))
(define-fun .def_16 () (Array Int Int) (! .y.7 :next |b|))
(define-fun .def_18 () Int (! .y.8 :next |.x.10|))
(define-fun .def_20 () Int (! .y.9 :next |.x.11|))
(define-fun .def_22 () Bool (! .loc.10 :next |.loc.15|))
(define-fun .def_24 () Bool (! .loc.11 :next |.loc.16|))
(define-fun .def_113 () Int (! i1_2 :next |.xpv.1|))
(define-fun .def_116 () Int (! j1_0 :next |.xpv.2|))
(define-fun .def_27 () Bool (not .def_24))
(define-fun .def_111 () Bool (and .def_22 .def_27))
(define-fun .def_110 () Bool (= .def_10 0))
(define-fun .def_112 () Bool (! (and .def_110 .def_111) :init true))
(define-fun .def_107 () Bool (= .def_8 .x.9))
(define-fun .def_26 () Bool (not .loc.15))
(define-fun .def_103 () Bool (and .loc.16 .def_26))
(define-fun .def_98 () Bool (= .def_12 .x.11))
(define-fun .def_96 () Bool (= .x.10 0))
(define-fun .def_54 () Bool (<= .def_12 .def_10))
(define-fun .def_97 () Bool (and .def_54 .def_96))
(define-fun .def_99 () Bool (and .def_97 .def_98))
(define-fun .def_100 () Bool (and .def_22 .def_99))
(define-fun .def_101 () Bool (and .def_27 .def_100))
(define-fun .def_92 () Bool (<= .def_20 .def_18))
(define-fun .def_93 () Bool (not .def_92))
(define-fun .def_82 () Int (* (- 1) .x.10))
(define-fun .def_87 () Int (+ .def_82 .def_20))
(define-fun .def_88 () Int (select .def_8 .def_87))
(define-fun .def_89 () (Array Int Int) (store .def_16 .def_18 .def_88))
(define-fun .def_90 () Bool (= b .def_89))
(define-fun .def_83 () Int (+ .def_18 .def_82))
(define-fun .def_84 () Bool (= .def_83 (- 1)))
(define-fun .def_29 () Bool (not .def_22))
(define-fun .def_77 () Bool (and .def_24 .def_29))
(define-fun .def_76 () Bool (= .def_20 .x.11))
(define-fun .def_78 () Bool (and .def_76 .def_77))
(define-fun .def_85 () Bool (and .def_78 .def_84))
(define-fun .def_91 () Bool (and .def_85 .def_90))
(define-fun .def_94 () Bool (and .def_91 .def_93))
(define-fun .def_102 () Bool (or .def_94 .def_101))
(define-fun .def_104 () Bool (and .def_102 .def_103))
(define-fun .def_71 () Int (* (- 1) .y.12))
(define-fun .def_72 () Int (+ .def_10 .def_71))
(define-fun .def_73 () Bool (= .def_72 (- 1)))
(define-fun .def_69 () Bool (= .y.13 .def_14))
(define-fun .def_66 () Bool (and .loc.15 .def_27))
(define-fun .def_67 () Bool (and .def_29 .def_66))
(define-fun .def_31 () Bool (not .loc.16))
(define-fun .def_68 () Bool (and .def_31 .def_67))
(define-fun .def_70 () Bool (and .def_68 .def_69))
(define-fun .def_74 () Bool (and .def_70 .def_73))
(define-fun .def_51 () Bool (<= .def_14 .def_12))
(define-fun .def_75 () Bool (and .def_51 .def_74))
(define-fun .def_105 () Bool (or .def_75 .def_104))
(define-fun .def_38 () Int (* (- 1) .y.13))
(define-fun .def_63 () Int (+ .def_10 .def_38))
(define-fun .def_64 () Bool (= .def_63 (- 1)))
(define-fun .def_60 () Bool (= .def_12 .y.14))
(define-fun .def_55 () Bool (not .def_54))
(define-fun .def_56 () Bool (and .def_22 .def_55))
(define-fun .def_57 () Bool (and .def_27 .def_56))
(define-fun .def_58 () Bool (and .def_26 .def_57))
(define-fun .def_59 () Bool (and .def_31 .def_58))
(define-fun .def_61 () Bool (and .def_59 .def_60))
(define-fun .def_33 () Bool (= .def_10 .y.12))
(define-fun .def_62 () Bool (and .def_33 .def_61))
(define-fun .def_65 () Bool (and .def_62 .def_64))
(define-fun .def_106 () Bool (or .def_65 .def_105))
(define-fun .def_108 () Bool (and .def_106 .def_107))
(define-fun .def_52 () Bool (not .def_51))
(define-fun .def_42 () Int (select .def_8 .def_10))
(define-fun .def_43 () Int (select .def_8 .def_12))
(define-fun .def_44 () (Array Int Int) (store .def_8 .def_10 .def_43))
(define-fun .def_45 () (Array Int Int) (store .def_44 .def_12 .def_42))
(define-fun .def_46 () Bool (<= .def_42 .def_43))
(define-fun .def_47 () Bool (not .def_46))
(define-fun .def_48 () (Array Int Int) (ite .def_47 .def_45 .def_8))
(define-fun .def_49 () Bool (= .x.9 .def_48))
(define-fun .def_39 () Int (+ .def_12 .def_38))
(define-fun .def_40 () Bool (= .def_39 (- 1)))
(define-fun .def_35 () Bool (= .def_14 .y.14))
(define-fun .def_28 () Bool (and .def_26 .def_27))
(define-fun .def_30 () Bool (and .def_28 .def_29))
(define-fun .def_32 () Bool (and .def_30 .def_31))
(define-fun .def_34 () Bool (and .def_32 .def_33))
(define-fun .def_36 () Bool (and .def_34 .def_35))
(define-fun .def_41 () Bool (and .def_36 .def_40))
(define-fun .def_50 () Bool (and .def_41 .def_49))
(define-fun .def_53 () Bool (and .def_50 .def_52))
(define-fun .def_109 () Bool (! (or .def_53 .def_108) :trans true))
(define-fun .def_128 () Bool (<= 0 .def_113))
(define-fun .def_124 () Bool (<= .def_116 .def_113))
(define-fun .def_125 () Bool (not .def_124))
(define-fun .def_119 () Int (select .def_16 .def_113))
(define-fun .def_120 () Int (select .def_16 .def_116))
(define-fun .def_121 () Bool (<= .def_120 .def_119))
(define-fun .def_122 () Bool (not .def_121))
(define-fun .def_117 () Bool (<= .def_20 .def_116))
(define-fun .def_118 () Bool (not .def_117))
(define-fun .def_123 () Bool (and .def_118 .def_122))
(define-fun .def_126 () Bool (and .def_123 .def_125))
(define-fun .def_114 () Bool (<= .def_20 .def_113))
(define-fun .def_115 () Bool (not .def_114))
(define-fun .def_127 () Bool (and .def_115 .def_126))
(define-fun .def_129 () Bool (and .def_127 .def_128))
(define-fun .def_130 () Bool (and .def_92 .def_129))
(define-fun .def_131 () Bool (and .def_77 .def_130))
(define-fun .def_134 () Bool (! (not .def_131) :invar-property 0))
(assert true)
